experiment/data/lkh-res/Vrp-Set-X-n294/Vrp-Set-X-n294-lkh/0.lkh1.vrp
NAME : 0
COMMENT : CVRP Instance
TYPE : CVRP
DIMENSION : 294
EDGE_WEIGHT_TYPE : EUC_2D
CAPACITY : 285
NODE_COORD_SECTION
1	50000	50000
2	94000	23100
3	72100	84800
4	61800	4400
5	99300	14500
6	63600	51200
7	27400	49600
8	24500	94500
9	44900	81200
10	2900	65000
11	39900	800
12	54800	1900
13	76900	71700
14	22100	85000
15	98000	23300
16	47700	92200
17	49800	72000
18	13600	83200
19	35100	66300
20	5800	6700
21	88900	56900
22	2800	33400
23	80400	92800
24	90000	13800
25	39300	40300
26	98200	60900
27	7900	29900
28	68400	58200
29	16900	25200
30	40500	92500
31	87500	19100
32	67400	11200
33	57600	53700
34	53900	6300
35	33800	65700
36	21000	20900
37	67600	56800
38	94900	82600
39	57200	89000
40	21000	61500
41	73700	4600
42	3000	52700
43	13100	72400
44	67100	84200
45	72700	56600
46	50700	49700
47	52400	13400
48	16700	66500
49	81900	10800
50	92900	58200
51	71300	73800
52	35200	62600
53	88700	54700
54	17600	64500
55	61100	28900
56	45700	53200
57	1100	14700
58	95800	6000
59	58700	18700
60	79000	95600
61	97400	6300
62	30600	22500
63	96100	96900
64	23800	73600
65	75800	84000
66	8800	4400
67	50700	81100
68	76800	47600
69	5100	91400
70	49400	44500
71	95300	3300
72	92200	4500
73	74800	11100
74	54400	86700
75	47700	59600
76	32200	7900
77	43900	15000
78	58600	76400
79	21400	59900
80	16800	48000
81	92500	13800
82	79700	10700
83	75100	78300
84	73800	91300
85	70300	7300
86	68100	88600
87	62700	2700
88	88700	31000
89	47800	34500
90	57100	60000
91	83400	85800
92	54900	37000
93	65700	23300
94	12600	76900
95	31700	93400
96	23700	5500
97	85100	40900
98	83800	42600
99	47700	55900
100	54200	9400
101	37000	43200
102	52000	62100
103	66600	17800
104	63100	48400
105	73300	25500
106	82000	91800
107	68700	87700
108	75200	98300
109	15700	72000
110	70900	89800
111	30000	87800
112	72800	61700
113	6600	5900
114	99100	65700
115	71700	4700
116	46300	17700
117	58600	39700
118	79200	30700
119	10000	39200
120	43800	72200
121	4300	24700
122	7100	47600
123	6900	56000
124	21100	7300
125	47100	1400
126	11500	80600
127	19400	33700
128	92100	32000
129	10400	49500
130	3600	45600
131	50000	15200
132	78200	31600
133	88100	37400
134	27700	60100
135	96200	57500
136	58800	18100
137	94100	72800
138	10800	93100
139	1100	81400
140	20900	80000
141	12900	52500
142	12600	14900
143	3100	21900
144	9700	32400
145	49500	12200
146	75900	48000
147	85900	78200
148	78000	66900
149	78600	76900
150	75900	15900
151	28200	63300
152	36100	1700
153	95700	10300
154	71100	93900
155	54400	54400
156	2700	31800
157	66500	65600
158	52300	58600
159	84200	42900
160	53900	78300
161	76900	34700
162	93700	38600
163	82400	84100
164	73800	39100
165	83300	98800
166	1600	63700
167	9100	47200
168	4100	38800
169	62300	78000
170	66000	15500
171	70000	65800
172	94600	78300
173	60700	81500
174	8700	77100
175	65800	87400
176	52700	85300
177	45900	57700
178	35200	82900
179	42700	23500
180	93700	63900
181	55400	43800
182	83300	69200
183	42100	99900
184	90800	44700
185	46900	16300
186	73700	23800
187	50900	6100
188	24600	35200
189	48800	40800
190	60000	35900
191	51000	46000
192	34200	69100
193	9500	21600
194	78700	46500
195	70000	87300
196	65900	56800
197	47800	52500
198	98800	98000
199	30300	11900
200	24100	35300
201	2800	66100
202	72400	84200
203	200	66000
204	21000	18000
205	84000	84100
206	84300	900
207	43000	9200
208	26500	45300
209	20900	67300
210	2000	95200
211	67300	65900
212	18500	33500
213	13800	65500
214	26300	15500
215	76900	74100
216	32500	26000
217	83100	67800
218	40100	62500
219	21200	36000
220	11800	42600
221	19200	52000
222	59600	37600
223	44900	67900
224	57900	29500
225	33300	35200
226	83700	94400
227	37700	50000
228	79700	9700
229	6500	23500
230	44000	87700
231	84900	76900
232	43900	32600
233	40700	62100
234	55000	24100
235	16900	6800
236	25300	24300
237	7600	85200
238	64200	11600
239	59800	12400
240	56400	37400
241	99700	66000
242	1400	9800
243	84500	30300
244	77400	900
245	79100	67100
246	29900	80000
247	57500	10900
248	86500	70800
249	29000	89700
250	95300	34800
251	90600	69200
252	89500	79000
253	2500	24200
254	76100	88600
255	90900	33600
256	50100	84600
257	73100	400
258	33700	7100
259	10600	97300
260	40000	22900
261	84600	36800
262	62300	58000
263	97800	66900
264	88400	55900
265	1000	91000
266	39000	60200
267	45100	13400
268	32400	22100
269	56900	9800
270	73500	34100
271	41100	22000
272	67200	86700
273	6900	79000
274	58400	52000
275	19300	41600
276	95400	91200
277	76100	73400
278	19200	87500
279	8800	35300
280	77700	3800
281	9800	6800
282	64200	65800
283	83800	30500
284	82400	69400
285	23800	82500
286	34400	13800
287	13700	68300
288	35700	59300
289	54100	42300
290	53700	9900
291	13700	53900
292	71900	21300
293	6800	17300
294	78800	33900
DEMAND_SECTION
1	0
2	94
3	7
4	83
5	31
6	9
7	78
8	50
9	18
10	10
11	11
12	68
13	37
14	57
15	83
16	38
17	94
18	12
19	63
20	84
21	19
22	68
23	32
24	98
25	47
26	97
27	25
28	98
29	30
30	30
31	10
32	20
33	64
34	56
35	73
36	32
37	51
38	51
39	45
40	72
41	81
42	26
43	46
44	16
45	39
46	9
47	52
48	60
49	39
50	39
51	97
52	40
53	79
54	2
55	86
56	69
57	28
58	73
59	46
60	1
61	31
62	99
63	91
64	19
65	41
66	99
67	23
68	52
69	81
70	89
71	48
72	11
73	21
74	36
75	24
76	56
77	93
78	32
79	30
80	81
81	15
82	98
83	61
84	32
85	57
86	8
87	48
88	45
89	19
90	43
91	6
92	9
93	40
94	66
95	1
96	55
97	32
98	24
99	47
100	72
101	36
102	77
103	28
104	44
105	4
106	42
107	38
108	15
109	13
110	81
111	58
112	77
113	88
114	91
115	44
116	88
117	68
118	40
119	57
120	4
121	86
122	11
123	96
124	51
125	75
126	84
127	81
128	7
129	3
130	37
131	38
132	20
133	31
134	67
135	26
136	49
137	96
138	49
139	78
140	21
141	15
142	8
143	75
144	28
145	23
146	23
147	39
148	36
149	28
150	51
151	53
152	25
153	94
154	81
155	8
156	54
157	49
158	8
159	71
160	52
161	19
162	38
163	85
164	25
165	84
166	12
167	82
168	4
169	62
170	57
171	34
172	4
173	15
174	66
175	24
176	11
177	86
178	96
179	36
180	4
181	52
182	94
183	78
184	85
185	8
186	55
187	31
188	48
189	79
190	89
191	13
192	68
193	46
194	33
195	78
196	14
197	8
198	66
199	36
200	88
201	67
202	72
203	98
204	90
205	29
206	9
207	44
208	5
209	43
210	12
211	24
212	20
213	56
214	23
215	73
216	62
217	95
218	36
219	57
220	59
221	80
222	82
223	47
224	33
225	49
226	23
227	10
228	15
229	20
230	82
231	30
232	78
233	77
234	96
235	59
236	8
237	72
238	90
239	76
240	87
241	59
242	77
243	96
244	13
245	55
246	90
247	77
248	35
249	21
250	28
251	76
252	16
253	68
254	39
255	13
256	27
257	94
258	12
259	69
260	57
261	36
262	13
263	5
264	53
265	59
266	33
267	8
268	86
269	59
270	61
271	62
272	36
273	99
274	91
275	41
276	11
277	65
278	48
279	32
280	81
281	50
282	34
283	78
284	47
285	59
286	13
287	52
288	26
289	46
290	3
291	47
292	67
293	70
294	13
DEPOT_SECTION
1
-1
EOF
