experiment/data/lkh-res/Vrp-Set-X-n294/Vrp-Set-X-n294-lkh/0.lkh1.tour
NAME : 0.4832602.tour
COMMENT : Length = 4832602
COMMENT : Found by LKH-3 [Keld Helsgaun] Tue Apr  9 06:00:25 2024
TYPE : TOUR
DIMENSION : 343
TOUR_SECTION
1
46
103
170
238
59
224
92
191
295
280
228
82
49
150
328
208
212
29
193
293
204
214
306
158
78
173
272
107
195
44
169
321
231
137
251
248
284
312
64
94
126
174
43
298
77
267
207
258
76
286
260
314
6
146
194
184
97
159
98
330
91
63
198
276
38
172
252
147
303
57
242
20
113
142
338
105
153
61
58
71
72
206
244
340
161
294
186
292
93
55
296
83
65
163
205
149
13
333
136
247
269
234
315
124
96
152
11
125
12
337
164
243
283
132
270
317
268
62
216
101
318
185
145
187
34
100
290
47
131
310
227
219
127
200
188
307
134
40
291
141
129
221
331
52
209
48
287
213
54
79
323
115
257
41
73
104
311
175
86
110
84
254
202
211
342
122
27
121
253
143
229
326
220
130
42
167
80
299
155
282
157
112
28
196
327
232
89
240
181
90
309
102
37
274
33
301
51
215
277
171
262
319
275
119
168
22
156
144
279
335
88
2
255
250
162
133
261
302
148
245
182
217
325
32
85
87
4
239
334
160
39
74
176
67
17
75
308
199
235
66
281
36
236
324
288
151
285
14
246
339
7
35
192
19
336
68
53
50
21
264
45
343
154
108
60
165
226
106
23
3
305
177
223
233
218
266
320
10
201
203
166
123
313
117
222
190
289
304
256
16
183
30
230
9
120
341
109
273
139
237
140
329
18
69
265
210
259
138
297
70
189
56
99
300
180
263
241
114
26
135
332
128
15
5
81
24
31
118
316
25
225
271
116
179
322
178
111
249
95
8
278
197
-1
EOF
